p cnf 295 1592
295 0
1 295 0
-1 -295 0
214 2 -1 0
-214 1 0
-287 -278 -215 214 0
287 -214 0
294 288 -287 0
-294 287 0
-289 -228 130 19 -33 294 0
289 -294 0
228 -294 0
-130 -294 0
-19 -294 0
33 -294 0
-288 287 0
289 -127 33 14 5 7 288 0
-289 -288 0
290 36 -289 0
-290 289 0
-291 -40 290 0
291 -290 0
-98 -292 291 0
98 -292 -291 0
-293 292 291 0
293 292 -291 0
-262 -228 19 292 0
262 -292 0
228 -292 0
-19 -292 0
40 -290 0
-36 289 0
127 -288 0
-33 -288 0
-14 -288 0
-5 -288 0
-7 -288 0
278 -214 0
286 282 281 280 279 -278 0
-286 278 0
-177 -163 -112 -105 142 101 -28 286 0
177 -286 0
163 -286 0
112 -286 0
105 -286 0
-142 -286 0
-101 -286 0
28 -286 0
-282 278 0
-283 150 -141 37 282 0
283 -282 0
-284 -142 283 0
284 -142 -283 0
-285 142 283 0
285 142 -283 0
175 -161 -146 -121 -22 101 -21 -20 18 -28 285 0
-175 -285 0
161 -285 0
146 -285 0
121 -285 0
22 -285 0
-101 -285 0
21 -285 0
20 -285 0
-18 -285 0
28 -285 0
-272 -262 -242 -228 171 19 284 0
272 -284 0
262 -284 0
242 -284 0
228 -284 0
-171 -284 0
-19 -284 0
-150 -282 0
141 -282 0
-37 -282 0
-281 278 0
140 139 142 138 -137 7 281 0
-140 -281 0
-139 -281 0
-142 -281 0
-138 -281 0
137 -281 0
-7 -281 0
-280 278 0
140 139 142 138 136 135 280 0
-140 -280 0
-139 -280 0
-142 -280 0
-138 -280 0
-136 -280 0
-135 -280 0
-279 278 0
140 139 142 138 136 -135 279 0
-140 -279 0
-139 -279 0
-142 -279 0
-138 -279 0
-136 -279 0
135 -279 0
215 -214 0
259 258 225 224 223 222 221 220 219 218 216 -215 0
-259 215 0
-260 -202 -186 -184 150 37 259 0
260 -259 0
-261 -217 260 0
261 -217 -260 0
-277 217 260 0
277 217 -260 0
-182 175 -161 -146 -121 -22 101 -48 -21 -20 18 -29 277 0
182 -277 0
-175 -277 0
161 -277 0
146 -277 0
121 -277 0
22 -277 0
-101 -277 0
48 -277 0
21 -277 0
20 -277 0
-18 -277 0
29 -277 0
-272 -262 -242 -228 171 19 -203 261 0
272 -261 0
276 275 274 273 -272 0
-276 272 0
-163 -112 -105 17 101 5 -28 276 0
163 -276 0
112 -276 0
105 -276 0
-17 -276 0
-101 -276 0
-5 -276 0
28 -276 0
-275 272 0
139 138 -137 7 275 0
-139 -275 0
-138 -275 0
137 -275 0
-7 -275 0
-274 272 0
139 138 136 135 274 0
-139 -274 0
-138 -274 0
-136 -274 0
-135 -274 0
-273 272 0
139 138 136 -135 273 0
-139 -273 0
-138 -273 0
-136 -273 0
135 -273 0
262 -261 0
271 270 269 268 267 266 265 264 263 -262 0
-271 262 0
255 247 246 244 19 72 65 62 47 271 0
-255 -271 0
-247 -271 0
-246 -271 0
-244 -271 0
-19 -271 0
-72 -271 0
-65 -271 0
-62 -271 0
-47 -271 0
-270 262 0
244 47 -45 -46 -21 -20 7 270 0
-244 -270 0
-47 -270 0
45 -270 0
46 -270 0
21 -270 0
20 -270 0
-7 -270 0
-269 262 0
-163 -112 -105 -49 -51 17 101 5 -48 -29 269 0
163 -269 0
112 -269 0
105 -269 0
49 -269 0
51 -269 0
-17 -269 0
-101 -269 0
-5 -269 0
48 -269 0
29 -269 0
-268 262 0
-163 -112 -49 -51 17 29 101 5 -48 268 0
163 -268 0
112 -268 0
49 -268 0
51 -268 0
-17 -268 0
-29 -268 0
-101 -268 0
-5 -268 0
48 -268 0
-267 262 0
247 244 65 47 -63 -64 -68 -59 267 0
-247 -267 0
-244 -267 0
-65 -267 0
-47 -267 0
63 -267 0
64 -267 0
68 -267 0
59 -267 0
-266 262 0
247 244 65 47 -63 -64 68 -59 266 0
-247 -266 0
-244 -266 0
-65 -266 0
-47 -266 0
63 -266 0
64 -266 0
-68 -266 0
59 -266 0
-265 262 0
247 246 244 65 62 47 -56 -57 -53 -54 265 0
-247 -265 0
-246 -265 0
-244 -265 0
-65 -265 0
-62 -265 0
-47 -265 0
56 -265 0
57 -265 0
53 -265 0
54 -265 0
-264 262 0
247 246 244 65 62 47 -56 -57 54 -53 264 0
-247 -264 0
-246 -264 0
-244 -264 0
-65 -264 0
-62 -264 0
-47 -264 0
56 -264 0
57 -264 0
-54 -264 0
53 -264 0
-263 262 0
244 47 -45 -46 21 -20 7 263 0
-244 -263 0
-47 -263 0
45 -263 0
46 -263 0
-21 -263 0
20 -263 0
-7 -263 0
242 -261 0
228 -261 0
-171 -261 0
-19 -261 0
203 -261 0
202 -259 0
186 -259 0
184 -259 0
-150 -259 0
-37 -259 0
-258 215 0
217 212 195 193 190 183 181 258 0
-217 -258 0
-212 -258 0
-195 -258 0
-193 -258 0
-190 -258 0
-183 -258 0
-181 -258 0
-225 215 0
-226 202 -186 -184 171 37 225 0
226 -225 0
-227 -217 226 0
227 -217 -226 0
-257 217 226 0
257 217 -226 0
-182 174 -172 -123 -22 29 101 -48 -21 -20 18 257 0
182 -257 0
-174 -257 0
172 -257 0
123 -257 0
22 -257 0
-29 -257 0
-101 -257 0
48 -257 0
21 -257 0
20 -257 0
-18 -257 0
-242 -228 19 203 227 0
242 -227 0
256 254 253 252 251 250 249 248 245 243 -242 0
-256 242 0
153 19 154 256 0
-153 -256 0
-19 -256 0
-154 -256 0
-254 242 0
255 247 246 244 -153 19 72 65 62 47 -154 254 0
-255 -254 0
-57 -53 255 0
57 -255 0
53 -255 0
-247 -254 0
-246 -254 0
-244 -254 0
153 -254 0
-19 -254 0
-72 -254 0
-65 -254 0
-62 -254 0
-47 -254 0
154 -254 0
-253 242 0
244 -153 47 -45 -46 -154 -21 -20 7 253 0
-244 -253 0
153 -253 0
-47 -253 0
45 -253 0
46 -253 0
154 -253 0
21 -253 0
20 -253 0
-7 -253 0
-252 242 0
-163 -153 -112 -105 -49 -51 17 101 5 -154 -48 -29 252 0
163 -252 0
153 -252 0
112 -252 0
105 -252 0
49 -252 0
51 -252 0
-17 -252 0
-101 -252 0
-5 -252 0
154 -252 0
48 -252 0
29 -252 0
-251 242 0
-163 -153 -112 -49 -51 17 29 101 5 -154 -48 251 0
163 -251 0
153 -251 0
112 -251 0
49 -251 0
51 -251 0
-17 -251 0
-29 -251 0
-101 -251 0
-5 -251 0
154 -251 0
48 -251 0
-250 242 0
247 244 -153 65 47 -63 -64 -68 -154 -59 250 0
-247 -250 0
-244 -250 0
153 -250 0
-65 -250 0
-47 -250 0
63 -250 0
64 -250 0
68 -250 0
154 -250 0
59 -250 0
-249 242 0
247 244 -153 65 47 -63 -64 68 -154 -59 249 0
-247 -249 0
-244 -249 0
153 -249 0
-65 -249 0
-47 -249 0
63 -249 0
64 -249 0
-68 -249 0
154 -249 0
59 -249 0
-248 242 0
247 246 244 -153 65 62 47 -56 -57 -154 -53 -54 248 0
-247 -248 0
-246 -248 0
-244 -248 0
153 -248 0
-65 -248 0
-62 -248 0
-47 -248 0
56 -248 0
57 -248 0
154 -248 0
53 -248 0
54 -248 0
-245 242 0
247 246 244 -153 65 62 47 -56 -57 54 -154 -53 245 0
-247 -245 0
-46 -20 7 247 0
46 -247 0
20 -247 0
-7 -247 0
-246 -245 0
-64 -59 246 0
64 -246 0
59 -246 0
-244 -245 0
153 -245 0
-65 -245 0
-62 -245 0
-47 -245 0
56 -245 0
57 -245 0
-54 -245 0
154 -245 0
53 -245 0
-243 242 0
244 -153 47 -45 -46 21 -154 -20 7 243 0
-244 -243 0
-51 101 -48 244 0
51 -244 0
-101 -244 0
48 -244 0
153 -243 0
-47 -243 0
45 -243 0
46 -243 0
-21 -243 0
154 -243 0
20 -243 0
-7 -243 0
228 -227 0
241 240 239 237 236 235 234 231 229 -228 0
-241 228 0
230 77 -75 -76 -21 -20 7 241 0
-230 -241 0
-77 -241 0
75 -241 0
76 -241 0
21 -241 0
20 -241 0
-7 -241 0
-240 228 0
-163 -112 -105 -78 -80 17 101 5 -48 -29 240 0
163 -240 0
112 -240 0
105 -240 0
78 -240 0
80 -240 0
-17 -240 0
-101 -240 0
-5 -240 0
48 -240 0
29 -240 0
-239 228 0
-163 -112 -78 -80 17 29 101 5 -48 239 0
163 -239 0
112 -239 0
78 -239 0
80 -239 0
-17 -239 0
-29 -239 0
-101 -239 0
-5 -239 0
48 -239 0
-237 228 0
238 233 232 230 19 93 90 87 77 237 0
-238 -237 0
-89 -53 238 0
89 -238 0
53 -238 0
-233 -237 0
-232 -237 0
-230 -237 0
-19 -237 0
-93 -237 0
-90 -237 0
-87 -237 0
-77 -237 0
-236 228 0
233 230 93 77 -91 -92 -68 -59 236 0
-233 -236 0
-230 -236 0
-93 -236 0
-77 -236 0
91 -236 0
92 -236 0
68 -236 0
59 -236 0
-235 228 0
233 230 93 77 -91 -92 68 -59 235 0
-233 -235 0
-230 -235 0
-93 -235 0
-77 -235 0
91 -235 0
92 -235 0
-68 -235 0
59 -235 0
-234 228 0
233 232 230 93 90 77 -88 -89 -53 -54 234 0
-233 -234 0
-232 -234 0
-230 -234 0
-93 -234 0
-90 -234 0
-77 -234 0
88 -234 0
89 -234 0
53 -234 0
54 -234 0
-231 228 0
233 232 230 93 90 77 -88 -89 54 -53 231 0
-233 -231 0
-76 -20 7 233 0
76 -233 0
20 -233 0
-7 -233 0
-232 -231 0
-92 -59 232 0
92 -232 0
59 -232 0
-230 -231 0
-93 -231 0
-90 -231 0
-77 -231 0
88 -231 0
89 -231 0
-54 -231 0
53 -231 0
-229 228 0
230 77 -75 -76 21 -20 7 229 0
-230 -229 0
-80 101 -48 230 0
80 -230 0
-101 -230 0
48 -230 0
-77 -229 0
75 -229 0
76 -229 0
-21 -229 0
20 -229 0
-7 -229 0
-19 -227 0
-203 -227 0
-202 -225 0
186 -225 0
184 -225 0
-171 -225 0
-37 -225 0
-224 215 0
217 190 183 181 -180 -21 -20 7 224 0
-217 -224 0
-190 -224 0
-183 -224 0
-181 -224 0
180 -224 0
21 -224 0
20 -224 0
-7 -224 0
-223 215 0
217 -206 -182 -163 -112 -105 101 -48 -29 223 0
-217 -223 0
206 -223 0
182 -223 0
163 -223 0
112 -223 0
105 -223 0
-101 -223 0
48 -223 0
29 -223 0
-222 215 0
217 -200 -182 -163 -112 29 101 -48 222 0
-217 -222 0
200 -222 0
182 -222 0
163 -222 0
112 -222 0
-29 -222 0
-101 -222 0
48 -222 0
-221 215 0
217 195 190 183 181 -194 -68 -59 221 0
-217 -221 0
-195 -221 0
-190 -221 0
-183 -221 0
-181 -221 0
194 -221 0
68 -221 0
59 -221 0
-220 215 0
217 195 190 183 181 -194 68 -59 220 0
-217 -220 0
-195 -220 0
-190 -220 0
-183 -220 0
-181 -220 0
194 -220 0
-68 -220 0
59 -220 0
-219 215 0
217 195 193 190 183 181 -192 -53 -54 219 0
-217 -219 0
-195 -219 0
-193 -219 0
-190 -219 0
-183 -219 0
-181 -219 0
192 -219 0
53 -219 0
54 -219 0
-218 215 0
217 195 193 190 183 181 -192 54 -53 218 0
-217 -218 0
-195 -218 0
-193 -218 0
-190 -218 0
-183 -218 0
-181 -218 0
192 -218 0
-54 -218 0
53 -218 0
-216 215 0
217 190 183 181 -180 21 -20 7 216 0
-217 -216 0
-189 -185 217 0
189 -217 0
185 -217 0
-190 -216 0
-183 -216 0
-181 -216 0
180 -216 0
-21 -216 0
20 -216 0
-7 -216 0
-2 1 0
-178 -133 -3 2 0
178 -2 0
213 211 210 209 205 199 198 197 196 191 179 -178 0
-213 178 0
-202 -186 -184 -182 175 -161 150 -146 -121 37 -22 101 -48 -21 -20 18 -29 213 0
202 -213 0
186 -213 0
184 -213 0
182 -213 0
-175 -213 0
161 -213 0
-150 -213 0
146 -213 0
121 -213 0
-37 -213 0
22 -213 0
-101 -213 0
48 -213 0
21 -213 0
20 -213 0
-18 -213 0
29 -213 0
-211 178 0
212 195 193 190 183 181 211 0
-212 -211 0
-192 -53 212 0
192 -212 0
53 -212 0
-195 -211 0
-193 -211 0
-190 -211 0
-183 -211 0
-181 -211 0
-210 178 0
202 -186 -184 -182 174 -172 171 -123 37 -22 29 101 -48 -21 -20 18 210 0
-202 -210 0
186 -210 0
184 -210 0
182 -210 0
-174 -210 0
172 -210 0
-171 -210 0
123 -210 0
-37 -210 0
22 -210 0
-29 -210 0
-101 -210 0
48 -210 0
21 -210 0
20 -210 0
-18 -210 0
-209 178 0
190 183 181 -180 -21 -20 7 209 0
-190 -209 0
-183 -209 0
-181 -209 0
180 -209 0
21 -209 0
20 -209 0
-7 -209 0
-205 178 0
-206 -182 -163 -112 -105 101 -48 -29 205 0
206 -205 0
-207 -183 206 0
207 -183 -206 0
-208 183 206 0
208 183 -206 0
-182 17 5 -48 -29 208 0
182 -208 0
-17 -208 0
-5 -208 0
48 -208 0
29 -208 0
-202 -151 -146 -73 -43 -22 -21 -20 18 207 0
202 -207 0
151 -207 0
146 -207 0
73 -207 0
43 -207 0
22 -207 0
21 -207 0
20 -207 0
-18 -207 0
182 -205 0
163 -205 0
112 -205 0
105 -205 0
-101 -205 0
48 -205 0
29 -205 0
-199 178 0
-200 -182 -163 -112 29 101 -48 199 0
200 -199 0
-201 -183 200 0
201 -183 -200 0
-204 183 200 0
204 183 -200 0
-182 17 29 5 -48 204 0
182 -204 0
-17 -204 0
-29 -204 0
-5 -204 0
48 -204 0
202 -151 -73 -22 -21 -20 18 201 0
-202 -201 0
-29 -19 202 0
29 -19 -202 0
-203 19 202 0
203 19 -202 0
151 -201 0
73 -201 0
22 -201 0
21 -201 0
20 -201 0
-18 -201 0
182 -199 0
163 -199 0
112 -199 0
-29 -199 0
-101 -199 0
48 -199 0
-198 178 0
195 190 183 181 -194 -68 -59 198 0
-195 -198 0
-190 -198 0
-183 -198 0
-181 -198 0
194 -198 0
68 -198 0
59 -198 0
-197 178 0
195 190 183 181 -194 68 -59 197 0
-195 -197 0
-190 -197 0
-183 -197 0
-181 -197 0
194 -197 0
-68 -197 0
59 -197 0
-196 178 0
195 193 190 183 181 -192 -53 -54 196 0
-195 -196 0
-193 -196 0
-190 -196 0
-183 -196 0
-181 -196 0
192 -196 0
53 -196 0
54 -196 0
-191 178 0
195 193 190 183 181 -192 54 -53 191 0
-195 -191 0
-180 -20 7 195 0
180 -195 0
20 -195 0
-7 -195 0
-193 -191 0
-194 -59 193 0
194 -193 0
59 -193 0
-190 -191 0
-183 -191 0
-181 -191 0
192 -191 0
-54 -191 0
53 -191 0
-179 178 0
190 183 181 -180 21 -20 7 179 0
-190 -179 0
-182 101 -48 190 0
182 -190 0
-101 -190 0
48 -190 0
-183 -179 0
-186 -184 37 183 0
186 -183 0
188 187 -186 0
-188 186 0
-189 19 188 0
189 -188 0
-19 -188 0
-187 186 0
-182 -22 -21 -20 18 187 0
182 -187 0
22 -187 0
21 -187 0
20 -187 0
-18 -187 0
184 -183 0
-48 -19 184 0
48 -19 -184 0
-185 19 184 0
185 19 -184 0
-37 -183 0
-181 -179 0
-182 17 5 -48 181 0
182 -181 0
-17 -181 0
-5 -181 0
48 -181 0
180 -179 0
-21 -179 0
20 -179 0
-7 -179 0
133 -2 0
176 145 144 143 134 -133 0
-176 133 0
-177 -163 -112 -105 101 -28 176 0
177 -176 0
-150 -140 177 0
150 -140 -177 0
-139 140 177 0
139 140 -177 0
163 -176 0
112 -176 0
105 -176 0
-101 -176 0
28 -176 0
-145 133 0
175 -161 150 -146 -141 -121 37 -22 101 -21 -20 18 -28 145 0
-175 -145 0
-163 -112 -105 175 0
163 -175 0
112 -175 0
105 -175 0
161 -145 0
170 162 -161 0
-170 161 0
174 -172 171 -123 -22 -21 -20 18 170 0
-174 -170 0
-163 -112 174 0
163 -174 0
112 -174 0
172 -170 0
173 160 159 158 157 156 155 152 -172 0
-173 172 0
-153 47 -45 -30 -21 -20 7 -26 173 0
153 -173 0
-47 -173 0
45 -173 0
30 -173 0
21 -173 0
20 -173 0
-7 -173 0
26 -173 0
-160 172 0
-159 172 0
-158 172 0
-157 172 0
-156 172 0
-155 172 0
-152 172 0
-171 -170 0
-151 -73 -22 -21 -20 18 171 0
151 -171 0
73 -171 0
22 -171 0
21 -171 0
20 -171 0
-18 -171 0
123 -170 0
22 -170 0
21 -170 0
20 -170 0
-18 -170 0
-162 161 0
-163 -151 -112 -73 -22 -21 -20 18 162 0
163 -162 0
169 168 167 166 165 164 -26 -163 0
-169 163 0
-30 21 -20 7 -26 169 0
30 -169 0
-21 -169 0
20 -169 0
-7 -169 0
26 -169 0
-168 163 0
71 61 58 -26 168 0
-71 -168 0
-61 -168 0
-58 -168 0
26 -168 0
-167 163 0
61 -60 -68 -59 -26 167 0
-61 -167 0
60 -167 0
68 -167 0
59 -167 0
26 -167 0
-166 163 0
61 -60 68 -59 -26 166 0
-61 -166 0
60 -166 0
-68 -166 0
59 -166 0
26 -166 0
-165 163 0
61 58 -55 -53 -26 -54 165 0
-61 -165 0
-58 -165 0
55 -165 0
53 -165 0
26 -165 0
54 -165 0
-164 163 0
61 58 -55 54 -53 -26 164 0
-61 -164 0
-58 -164 0
55 -164 0
-54 -164 0
53 -164 0
26 -164 0
26 163 0
151 -162 0
112 -162 0
73 -162 0
22 -162 0
21 -162 0
20 -162 0
-18 -162 0
-150 -145 0
-151 -146 -73 -43 -22 -21 -20 18 150 0
151 -150 0
160 159 158 157 156 155 152 -151 0
-160 151 0
-153 72 71 65 62 61 58 47 -22 -21 -20 18 -26 160 0
153 -160 0
-72 -160 0
-71 -160 0
-65 -160 0
-62 -160 0
-61 -160 0
-58 -160 0
-47 -160 0
22 -160 0
21 -160 0
20 -160 0
-18 -160 0
26 -160 0
-159 151 0
153 -22 26 -21 -20 18 159 0
-153 -159 0
22 -159 0
-26 -159 0
21 -159 0
20 -159 0
-18 -159 0
-158 151 0
-153 65 61 47 -63 -60 -68 -59 -26 158 0
153 -158 0
-65 -158 0
-61 -158 0
-47 -158 0
63 -158 0
60 -158 0
68 -158 0
59 -158 0
26 -158 0
-157 151 0
-153 65 61 47 -63 -60 68 -59 -26 157 0
153 -157 0
-65 -157 0
-61 -157 0
-47 -157 0
63 -157 0
60 -157 0
-68 -157 0
59 -157 0
26 -157 0
-156 151 0
-153 65 62 61 58 47 -56 -55 -53 -26 -54 156 0
153 -156 0
-65 -156 0
-62 -156 0
-61 -156 0
-58 -156 0
-47 -156 0
56 -156 0
55 -156 0
53 -156 0
26 -156 0
54 -156 0
-155 151 0
-153 65 62 61 58 47 -56 -55 54 -53 -26 155 0
153 -155 0
-65 -155 0
-62 -155 0
-61 -155 0
-58 -155 0
-47 -155 0
56 -155 0
55 -155 0
-54 -155 0
53 -155 0
26 -155 0
-152 151 0
-153 47 -45 -30 21 -20 7 -26 152 0
153 -152 0
-26 -19 153 0
26 -19 -153 0
-154 19 153 0
154 19 -153 0
-47 -152 0
45 -152 0
30 -152 0
-21 -152 0
20 -152 0
-7 -152 0
26 -152 0
146 -150 0
73 -150 0
43 -150 0
22 -150 0
21 -150 0
20 -150 0
-18 -150 0
146 -145 0
149 148 147 -146 0
-149 146 0
139 -137 7 149 0
-139 -149 0
137 -149 0
-7 -149 0
-148 146 0
139 136 135 148 0
-139 -148 0
-136 -148 0
-135 -148 0
-147 146 0
139 136 -135 147 0
-139 -147 0
-136 -147 0
135 -147 0
141 -145 0
121 -145 0
-37 -145 0
22 -145 0
-101 -145 0
21 -145 0
20 -145 0
-18 -145 0
28 -145 0
-144 133 0
140 139 138 -137 7 144 0
-140 -144 0
-139 -144 0
-138 -144 0
137 -144 0
-7 -144 0
-143 133 0
140 139 138 136 135 143 0
-140 -143 0
-139 -143 0
-138 -143 0
-136 -143 0
-135 -143 0
-134 133 0
140 139 138 136 -135 134 0
-140 -134 0
-141 37 140 0
141 -140 0
-28 -19 141 0
28 -19 -141 0
-142 19 141 0
142 19 -141 0
-37 -140 0
-139 -134 0
17 5 -28 139 0
-17 -139 0
-5 -139 0
28 -139 0
-138 -134 0
101 -28 138 0
-101 -138 0
28 -138 0
-136 -134 0
-137 7 136 0
137 -136 0
-7 -136 0
135 -134 0
3 -2 0
131 129 128 126 4 -3 0
-131 3 0
-132 -99 -112 131 0
132 -131 0
-130 -33 132 0
130 -33 -132 0
-14 33 132 0
14 33 -132 0
99 -131 0
112 -131 0
-129 3 0
112 130 -99 -123 -33 -22 -21 -20 18 129 0
-112 -129 0
-130 -129 0
-73 -22 -21 -20 18 130 0
73 -130 0
22 -130 0
21 -130 0
20 -130 0
-18 -130 0
99 -129 0
123 -129 0
33 -129 0
22 -129 0
21 -129 0
20 -129 0
-18 -129 0
-128 3 0
-127 99 33 14 5 -7 128 0
127 -128 0
-99 -128 0
-33 -128 0
-14 -128 0
-5 -128 0
7 -128 0
-126 3 0
127 99 33 14 5 7 126 0
-127 -126 0
-19 9 8 -127 0
19 127 0
-9 127 0
-8 127 0
-99 -126 0
-33 -126 0
-14 -126 0
-5 -126 0
-7 -126 0
-4 3 0
99 33 14 -5 4 0
-99 -4 0
102 100 -99 0
-102 99 0
-103 101 -27 102 0
103 -102 0
-32 -104 103 0
32 -104 -103 0
-119 104 103 0
119 104 -103 0
-98 -120 119 0
98 -120 -119 0
-125 120 119 0
125 120 -119 0
-123 -121 -22 -21 -20 18 120 0
123 -120 0
124 97 96 95 94 81 74 -123 0
-124 123 0
77 -75 -23 -21 -20 7 124 0
-77 -124 0
75 -124 0
23 -124 0
21 -124 0
20 -124 0
-7 -124 0
-97 123 0
-96 123 0
-95 123 0
-94 123 0
-81 123 0
-74 123 0
121 -120 0
122 70 69 67 66 52 44 -121 0
-122 121 0
47 -45 -30 -21 -20 7 122 0
-47 -122 0
45 -122 0
30 -122 0
21 -122 0
20 -122 0
-7 -122 0
-70 121 0
-69 121 0
-67 121 0
-66 121 0
-52 121 0
-44 121 0
22 -120 0
21 -120 0
20 -120 0
-18 -120 0
-112 -105 104 0
112 -104 0
118 117 116 115 114 113 -112 0
-118 112 0
-23 21 -20 7 118 0
23 -118 0
-21 -118 0
20 -118 0
-7 -118 0
-117 112 0
86 -85 -68 -59 117 0
-86 -117 0
85 -117 0
68 -117 0
59 -117 0
-116 112 0
86 -85 68 -59 116 0
-86 -116 0
85 -116 0
-68 -116 0
59 -116 0
-115 112 0
86 84 -83 -53 -54 115 0
-86 -115 0
-84 -115 0
83 -115 0
53 -115 0
54 -115 0
-114 112 0
86 84 -83 54 -53 114 0
-86 -114 0
-84 -114 0
83 -114 0
-54 -114 0
53 -114 0
-113 112 0
86 84 82 113 0
-86 -113 0
-84 -113 0
-82 -113 0
105 -104 0
111 110 109 108 107 106 -105 0
-111 105 0
-30 21 -20 7 111 0
30 -111 0
-21 -111 0
20 -111 0
-7 -111 0
-110 105 0
71 61 58 110 0
-71 -110 0
-61 -110 0
-58 -110 0
-109 105 0
61 -60 -68 -59 109 0
-61 -109 0
60 -109 0
68 -109 0
59 -109 0
-108 105 0
61 -60 68 -59 108 0
-61 -108 0
60 -108 0
-68 -108 0
59 -108 0
-107 105 0
61 58 -55 -53 -54 107 0
-61 -107 0
-58 -107 0
55 -107 0
53 -107 0
54 -107 0
-106 105 0
61 58 -55 54 -53 106 0
-61 -106 0
-58 -106 0
55 -106 0
-54 -106 0
53 -106 0
-101 -102 0
27 -102 0
-100 99 0
101 -16 100 0
-101 -100 0
11 6 9 18 8 -101 0
-11 101 0
-6 101 0
-9 101 0
-18 101 0
-8 101 0
16 -100 0
-33 -4 0
38 34 -33 0
-38 33 0
-41 -39 37 38 0
41 -38 0
-32 -42 41 0
32 -42 -41 0
-98 42 41 0
98 42 -41 0
-73 -43 -22 -21 -20 18 42 0
73 -42 0
97 96 95 94 81 74 -73 0
-97 73 0
93 86 77 -91 -85 -68 -59 97 0
-93 -97 0
-86 -97 0
-77 -97 0
91 -97 0
85 -97 0
68 -97 0
59 -97 0
-96 73 0
93 86 77 -91 -85 68 -59 96 0
-93 -96 0
-86 -96 0
-77 -96 0
91 -96 0
85 -96 0
-68 -96 0
59 -96 0
-95 73 0
93 90 86 84 77 -88 -83 -53 -54 95 0
-93 -95 0
-90 -95 0
-86 -95 0
-84 -95 0
-77 -95 0
88 -95 0
83 -95 0
53 -95 0
54 -95 0
-94 73 0
93 90 86 84 77 -88 -83 54 -53 94 0
-93 -94 0
-90 -94 0
-86 -94 0
-84 -94 0
-77 -94 0
88 -94 0
83 -94 0
-54 -94 0
53 -94 0
-81 73 0
93 90 87 86 84 82 77 -22 -21 -20 18 81 0
-93 -81 0
-75 -20 7 93 0
75 -93 0
20 -93 0
-7 -93 0
-90 -81 0
-91 -59 90 0
91 -90 0
-85 -19 91 0
85 -19 -91 0
-92 19 91 0
92 19 -91 0
59 -90 0
-87 -81 0
-88 -53 87 0
88 -87 0
-83 -19 88 0
83 -19 -88 0
-89 19 88 0
89 19 -88 0
53 -87 0
-86 -81 0
-23 -20 7 86 0
23 -86 0
20 -86 0
-7 -86 0
-84 -81 0
-85 -59 84 0
85 -84 0
59 -84 0
-82 -81 0
-83 -53 82 0
83 -82 0
53 -82 0
-77 -81 0
22 -81 0
21 -81 0
20 -81 0
-18 -81 0
-74 73 0
77 -75 -23 21 -20 7 74 0
-77 -74 0
-78 17 5 -48 77 0
78 -77 0
-79 -19 78 0
79 -19 -78 0
-80 19 78 0
80 19 -78 0
-17 -77 0
-5 -77 0
48 -77 0
75 -74 0
-23 -19 75 0
23 -19 -75 0
-76 19 75 0
76 19 -75 0
23 -74 0
-21 -74 0
20 -74 0
-7 -74 0
43 -42 0
70 69 67 66 52 44 -43 0
-70 43 0
72 71 65 62 61 58 47 -22 -21 -20 18 70 0
-72 -70 0
-56 -53 72 0
56 -72 0
53 -72 0
-71 -70 0
-55 -53 71 0
55 -71 0
53 -71 0
-65 -70 0
-62 -70 0
-61 -70 0
-58 -70 0
-47 -70 0
22 -70 0
21 -70 0
20 -70 0
-18 -70 0
-69 43 0
65 61 47 -63 -60 -68 -59 69 0
-65 -69 0
-61 -69 0
-47 -69 0
63 -69 0
60 -69 0
68 -69 0
59 -69 0
-67 43 0
65 61 47 -63 -60 68 -59 67 0
-65 -67 0
-61 -67 0
-47 -67 0
63 -67 0
60 -67 0
-68 -67 0
59 -67 0
-66 43 0
65 62 61 58 47 -56 -55 -53 -54 66 0
-65 -66 0
-62 -66 0
-61 -66 0
-58 -66 0
-47 -66 0
56 -66 0
55 -66 0
53 -66 0
54 -66 0
-52 43 0
65 62 61 58 47 -56 -55 54 -53 52 0
-65 -52 0
-45 -20 7 65 0
45 -65 0
20 -65 0
-7 -65 0
-62 -52 0
-63 -59 62 0
63 -62 0
-60 -19 63 0
60 -19 -63 0
-64 19 63 0
64 19 -63 0
59 -62 0
-61 -52 0
-30 -20 7 61 0
30 -61 0
20 -61 0
-7 -61 0
-58 -52 0
-60 -59 58 0
60 -58 0
59 -58 0
-47 -52 0
56 -52 0
-55 -19 56 0
55 -19 -56 0
-57 19 56 0
57 19 -56 0
55 -52 0
-54 -52 0
53 -52 0
-44 43 0
47 -45 -30 21 -20 7 44 0
-47 -44 0
-49 17 5 -48 47 0
49 -47 0
-50 -19 49 0
50 -19 -49 0
-51 19 49 0
51 19 -49 0
-17 -47 0
-5 -47 0
48 -47 0
45 -44 0
-30 -19 45 0
30 -19 -45 0
-46 19 45 0
46 19 -45 0
30 -44 0
-21 -44 0
20 -44 0
-7 -44 0
22 -42 0
21 -42 0
20 -42 0
-18 -42 0
39 -38 0
-27 -19 39 0
27 -19 -39 0
-40 19 39 0
40 19 -39 0
-37 -38 0
-34 33 0
37 -35 34 0
-37 -34 0
31 15 11 6 9 8 -37 0
-31 37 0
-15 37 0
-11 37 0
-6 37 0
-9 37 0
-8 37 0
35 -34 0
-16 -19 35 0
16 -19 -35 0
-36 19 35 0
36 19 -35 0
-14 -4 0
31 15 -14 0
-31 14 0
17 -32 5 -27 31 0
-17 -31 0
32 -31 0
-5 -31 0
27 -31 0
-15 14 0
17 5 -16 15 0
-17 -15 0
19 9 18 8 -17 0
-19 17 0
-22 -21 -20 18 19 0
22 -19 0
24 23 -22 0
-24 22 0
-30 -25 24 0
30 -24 0
25 -24 0
29 28 27 26 -25 0
-29 25 0
-28 25 0
-27 25 0
-26 25 0
-23 22 0
21 -19 0
20 -19 0
-18 -19 0
-9 17 0
-18 17 0
-8 17 0
-5 -15 0
16 -15 0
5 -4 0
11 6 -5 0
-11 5 0
-13 -12 7 11 0
13 -11 0
12 -11 0
-7 -11 0
-6 5 0
-10 7 6 0
10 -6 0
-7 -6 0
9 8 -7 0
-9 7 0
-8 7 0
